certificates/rado_a14_c46_N44.drat
3 -42 6 0
-42 -43 -44 0
-5 -1 0
d -5 -25 -1 0
-43 -44 0
d -42 -43 -44 0
-44 0
6 0
-5 0
29 0
20 0
-2 0
26 0
23 0
1 0
-33 0
-39 0
-38 0
9 0
15 0
21 0
14 0
-41 0
-4 0
17 0
12 0
28 0
22 0
31 0
43 0
34 0
-3 0
-11 0
7 0
40 0
42 0
37 0
35 0
27 0
13 0
8 0
0
